Maximize
F - ff - gg

Subject to
F - f1 - f2 - f3 - f4 = 0
f1 - 20X85 - 20X121 - 30X131 = 0
f2 = 0
f3 = 0
f4 - 4.0V85 - 4.0V121 - 6.0V131 = 0

ff - 0.027397s85 - 0.027397s121 - 0.027397s131 


- 0.027397r85 - 0.027397r121 - 0.027397r131 
= 0
gg 

- 3.810037V85 - 3.575825V121 - 3.470356V131 = 0

n1 - X85 - X121 - X131 = 0
n2 = 0
n3 = 0
n4 - V85 - V121 - V131 = 0



X85 + V85 <= 1
X121 + V121 <= 1
X131 + V131 <= 1

x187x131x1 

<= 2

x156x131x1 

<= 2
x155x131x1 

<= 1

x108x131x1 

<= 1




x4x121x2 

<= 2


x70x121x2 

<= 1

x20x121x2 

<= 1
x208x121x2 

<= 1
x160x121x2 

<= 1



x155x85x3 

<= 1
x70x85x3 

<= 1
x108x85x3 

<= 1
x20x85x3 

<= 1
x208x85x3 

<= 1
x160x85x3 

<= 1
x187x131x1 

<= 2

x156x131x1 

<= 2
x155x131x1 

<= 1

x108x131x1 

<= 1




x4x121x2 

<= 2


x70x121x2 

<= 1

x20x121x2 

<= 1
x208x121x2 

<= 1
x160x121x2 

<= 1



x155x85x3 

<= 1
x70x85x3 

<= 1
x108x85x3 

<= 1
x20x85x3 

<= 1
x208x85x3 

<= 1
x160x85x3 

<= 1
x187x131x1 
+ v187v131v1 
<= 2

x156x131x1 
+ v156v131v1 
<= 2
x155x131x1 
+ v155v131v1 
<= 1

x108x131x1 
+ v108v131v1 
<= 1




x4x121x2 
+ v4v121v2 
<= 2


x70x121x2 
+ v70v121v2 
<= 1

x20x121x2 
+ v20v121v2 
<= 1
x208x121x2 
+ v208v121v2 
<= 1
x160x121x2 
+ v160v121v2 
<= 1



x155x85x3 
+ v155v85v3 
<= 1
x70x85x3 
+ v70v85v3 
<= 1
x108x85x3 
+ v108v85v3 
<= 1
x20x85x3 
+ v20v85v3 
<= 1
x208x85x3 
+ v208v85v3 
<= 1
x160x85x3 
+ v160v85v3 
<= 1
x155x85x3 + x70x85x3 + x108x85x3 + x20x85x3 + x208x85x3 + x160x85x3 
= 0

x4x121x2 + x70x121x2 + x20x121x2 + x208x121x2 + x160x121x2 
= 0

x187x131x1 + x156x131x1 + x155x131x1 + x108x131x1 
= 0


x155x85x3 + x70x85x3 + x108x85x3 + x20x85x3 + x208x85x3 + x160x85x3 
= 0

x4x121x2 + x70x121x2 + x20x121x2 + x208x121x2 + x160x121x2 
= 0

x187x131x1 + x156x131x1 + x155x131x1 + x108x131x1 
= 0


x155x85x3 + x70x85x3 + x108x85x3 + x20x85x3 + x208x85x3 + x160x85x3 
+ v155v85v3 + v70v85v3 + v108v85v3 + v20v85v3 + v208v85v3 + v160v85v3 
= 0

x4x121x2 + x70x121x2 + x20x121x2 + x208x121x2 + x160x121x2 
+ v4v121v2 + v70v121v2 + v20v121v2 + v208v121v2 + v160v121v2 
= 0

x187x131x1 + x156x131x1 + x155x131x1 + x108x131x1 
+ v187v131v1 + v156v131v1 + v155v131v1 + v108v131v1 
= 0


2X85 - x155x85x3 - x70x85x3 - x108x85x3 - x20x85x3 - x208x85x3 - x160x85x3 = 0
2X121 - x4x121x2 - x70x121x2 - x20x121x2 - x208x121x2 - x160x121x2 = 0
2X131 - x187x131x1 - x156x131x1 - x155x131x1 - x108x131x1 = 0



2V85 - v155v85v3 - v70v85v3 - v108v85v3 - v20v85v3 - v208v85v3 - v160v85v3 = 0
2V121 - v4v121v2 - v70v121v2 - v20v121v2 - v208v121v2 - v160v121v2 = 0
2V131 - v187v131v1 - v156v131v1 - v155v131v1 - v108v131v1 = 0


s187 - s131 + 6.072801a187a131a1 <= 4.43
s4 - s121 + 6.271069a4a121a2 <= 4.50
s156 - s131 + 6.137674a156a131a1 <= 4.81
s155 - s85 + 5.777701a155a85a3 <= 4.60
s155 - s131 + 5.810341a155a131a1 <= 4.60
s70 - s85 + 6.305444a70a85a3 <= 5.16
s70 - s121 + 6.345921a70a121a2 <= 5.16
s108 - s85 + 6.908655a108a85a3 <= 5.35
s108 - s131 + 6.866133a108a131a1 <= 5.35
s20 - s85 + 6.971546a20a85a3 <= 5.43
s20 - s121 + 6.967651a20a121a2 <= 5.43
s208 - s85 + 6.751348a208a85a3 <= 5.73
s208 - s121 + 6.786940a208a121a2 <= 5.73
s160 - s85 + 6.755029a160a85a3 <= 5.75
s160 - s121 + 6.795503a160a121a2 <= 5.75



r187 - r131 + 6.072801d187d131d1 <= 4.43
r4 - r121 + 6.271069d4d121d2 <= 4.50
r156 - r131 + 6.137674d156d131d1 <= 4.81
r155 - r85 + 5.777701d155d85d3 <= 4.60
r155 - r131 + 5.810341d155d131d1 <= 4.60
r70 - r85 + 6.305444d70d85d3 <= 5.16
r70 - r121 + 6.345921d70d121d2 <= 5.16
r108 - r85 + 6.908655d108d85d3 <= 5.35
r108 - r131 + 6.866133d108d131d1 <= 5.35
r20 - r85 + 6.971546d20d85d3 <= 5.43
r20 - r121 + 6.967651d20d121d2 <= 5.43
r208 - r85 + 6.751348d208d85d3 <= 5.73
r208 - r121 + 6.786940d208d121d2 <= 5.73
r160 - r85 + 6.755029d160d85d3 <= 5.75
r160 - r121 + 6.795503d160d121d2 <= 5.75

x155x85x3 + x70x85x3 + x108x85x3 + x20x85x3 + x208x85x3 + x160x85x3 

- 2w85 <= 0

x4x121x2 + x70x121x2 + x20x121x2 + x208x121x2 + x160x121x2 

- 2w121 <= 0

x187x131x1 + x156x131x1 + x155x131x1 + x108x131x1 

- 2w131 <= 0

x155x85x3 + x70x85x3 + x108x85x3 + x20x85x3 + x208x85x3 + x160x85x3 

- w85 >= 0

x4x121x2 + x70x121x2 + x20x121x2 + x208x121x2 + x160x121x2 

- w121 >= 0

x187x131x1 + x156x131x1 + x155x131x1 + x108x131x1 

- w131 >= 0

s187 - t187 + 4.43w187 <= 4.43
s4 - t4 + 4.50w4 <= 4.50
s156 - t156 + 4.81w156 <= 4.81
s155 - t155 + 4.60w155 <= 4.60
s70 - t70 + 5.16w70 <= 5.16
s108 - t108 + 5.35w108 <= 5.35
s20 - t20 + 5.43w20 <= 5.43
s208 - t208 + 5.73w208 <= 5.73
s160 - t160 + 5.75w160 <= 5.75
s85 - t85 + 6.00w85 <= 6.00
s121 - t121 + 6.14w121 <= 6.14
s131 - t131 + 6.11w131 <= 6.11
s187 - u187 + 4.43w187 <= 4.43
s4 - u4 + 4.50w4 <= 4.50
s156 - u156 + 4.81w156 <= 4.81
s155 - u155 + 4.60w155 <= 4.60
s70 - u70 + 5.16w70 <= 5.16
s108 - u108 + 5.35w108 <= 5.35
s20 - u20 + 5.43w20 <= 5.43
s208 - u208 + 5.73w208 <= 5.73
s160 - u160 + 5.75w160 <= 5.75
s85 - u85 + 6.00w85 <= 6.00
s121 - u121 + 6.14w121 <= 6.14
s131 - u131 + 6.11w131 <= 6.11
s187 - r187 + 4.43w187 <= 4.43
s4 - r4 + 4.50w4 <= 4.50
s156 - r156 + 4.81w156 <= 4.81
s155 - r155 + 4.60w155 <= 4.60
s70 - r70 + 5.16w70 <= 5.16
s108 - r108 + 5.35w108 <= 5.35
s20 - r20 + 5.43w20 <= 5.43
s208 - r208 + 5.73w208 <= 5.73
s160 - r160 + 5.75w160 <= 5.75
s85 - r85 + 6.00w85 <= 6.00
s121 - r121 + 6.14w121 <= 6.14
s131 - r131 + 6.11w131 <= 6.11

s187 - t187 - 4.43w187 >= -4.43
s4 - t4 - 4.50w4 >= -4.50
s156 - t156 - 4.81w156 >= -4.81
s155 - t155 - 4.60w155 >= -4.60
s70 - t70 - 5.16w70 >= -5.16
s108 - t108 - 5.35w108 >= -5.35
s20 - t20 - 5.43w20 >= -5.43
s208 - t208 - 5.73w208 >= -5.73
s160 - t160 - 5.75w160 >= -5.75
s85 - t85 - 20.00w85 >= -20.00
s121 - t121 - 20.00w121 >= -20.00
s131 - t131 - 20.00w131 >= -20.00


s187 - u187 - 4.43w187 >= -4.43
s4 - u4 - 4.50w4 >= -4.50
s156 - u156 - 4.81w156 >= -4.81
s155 - u155 - 4.60w155 >= -4.60
s70 - u70 - 5.16w70 >= -5.16
s108 - u108 - 5.35w108 >= -5.35
s20 - u20 - 5.43w20 >= -5.43
s208 - u208 - 5.73w208 >= -5.73
s160 - u160 - 5.75w160 >= -5.75
s85 - u85 - 20.00w85 >= -20.00
s121 - u121 - 20.00w121 >= -20.00
s131 - u131 - 20.00w131 >= -20.00


s187 - r187 - 4.43w187 >= -4.43
s4 - r4 - 4.50w4 >= -4.50
s156 - r156 - 4.81w156 >= -4.81
s155 - r155 - 4.60w155 >= -4.60
s70 - r70 - 5.16w70 >= -5.16
s108 - r108 - 5.35w108 >= -5.35
s20 - r20 - 5.43w20 >= -5.43
s208 - r208 - 5.73w208 >= -5.73
s160 - r160 - 5.75w160 >= -5.75
s85 - r85 - 6.00w85 >= -6.00
s121 - r121 - 6.14w121 >= -6.14
s131 - r131 - 6.11w131 >= -6.11


s85 + 6.00a155a85a3 <= 12.00
s85 + 6.00a70a85a3 <= 12.00
s85 + 6.00a108a85a3 <= 12.00
s85 + 6.00a20a85a3 <= 12.00
s85 + 6.00a208a85a3 <= 12.00
s85 + 6.00a160a85a3 <= 12.00
s121 + 6.14a4a121a2 <= 12.14
s121 + 6.14a70a121a2 <= 12.14
s121 + 6.14a20a121a2 <= 12.14
s121 + 6.14a208a121a2 <= 12.14
s121 + 6.14a160a121a2 <= 12.14
s131 + 6.11a187a131a1 <= 12.11
s131 + 6.11a156a131a1 <= 12.11
s131 + 6.11a155a131a1 <= 12.11
s131 + 6.11a108a131a1 <= 12.11


r85 - 6.0d155d85d3 > 0
r85 - 6.0d70d85d3 > 0
r85 - 6.0d108d85d3 > 0
r85 - 6.0d20d85d3 > 0
r85 - 6.0d208d85d3 > 0
r85 - 6.0d160d85d3 > 0
r121 - 6.0d4d121d2 > 0
r121 - 6.0d70d121d2 > 0
r121 - 6.0d20d121d2 > 0
r121 - 6.0d208d121d2 > 0
r121 - 6.0d160d121d2 > 0
r131 - 6.0d187d131d1 > 0
r131 - 6.0d156d131d1 > 0
r131 - 6.0d155d131d1 > 0
r131 - 6.0d108d131d1 > 0


a155a85a3 + b155b85b3 <= 1
a70a85a3 + b70b85b3 <= 1
a108a85a3 + b108b85b3 <= 1
a20a85a3 + b20b85b3 <= 1
a208a85a3 + b208b85b3 <= 1
a160a85a3 + b160b85b3 <= 1
a4a121a2 + b4b121b2 <= 1
a70a121a2 + b70b121b2 <= 1
a20a121a2 + b20b121b2 <= 1
a208a121a2 + b208b121b2 <= 1
a160a121a2 + b160b121b2 <= 1
a187a131a1 + b187b131b1 <= 1
a156a131a1 + b156b131b1 <= 1
a155a131a1 + b155b131b1 <= 1
a108a131a1 + b108b131b1 <= 1


a155a85a3 + c155c85c3 <= 1
a70a85a3 + c70c85c3 <= 1
a108a85a3 + c108c85c3 <= 1
a20a85a3 + c20c85c3 <= 1
a208a85a3 + c208c85c3 <= 1
a160a85a3 + c160c85c3 <= 1
a4a121a2 + c4c121c2 <= 1
a70a121a2 + c70c121c2 <= 1
a20a121a2 + c20c121c2 <= 1
a208a121a2 + c208c121c2 <= 1
a160a121a2 + c160c121c2 <= 1
a187a131a1 + c187c131c1 <= 1
a156a131a1 + c156c131c1 <= 1
a155a131a1 + c155c131c1 <= 1
a108a131a1 + c108c131c1 <= 1


a155a85a3 + d155d85d3 <= 1
a70a85a3 + d70d85d3 <= 1
a108a85a3 + d108d85d3 <= 1
a20a85a3 + d20d85d3 <= 1
a208a85a3 + d208d85d3 <= 1
a160a85a3 + d160d85d3 <= 1
a4a121a2 + d4d121d2 <= 1
a70a121a2 + d70d121d2 <= 1
a20a121a2 + d20d121d2 <= 1
a208a121a2 + d208d121d2 <= 1
a160a121a2 + d160d121d2 <= 1
a187a131a1 + d187d131d1 <= 1
a156a131a1 + d156d131d1 <= 1
a155a131a1 + d155d131d1 <= 1
a108a131a1 + d108d131d1 <= 1

x187x131x1 - 2a187a131a1 <= 0
x4x121x2 - 2a4a121a2 <= 0
x156x131x1 - 2a156a131a1 <= 0
x155x85x3 - 2a155a85a3 <= 0
x155x131x1 - 2a155a131a1 <= 0
x70x85x3 - 2a70a85a3 <= 0
x70x121x2 - 2a70a121a2 <= 0
x108x85x3 - 2a108a85a3 <= 0
x108x131x1 - 2a108a131a1 <= 0
x20x85x3 - 2a20a85a3 <= 0
x20x121x2 - 2a20a121a2 <= 0
x208x85x3 - 2a208a85a3 <= 0
x208x121x2 - 2a208a121a2 <= 0
x160x85x3 - 2a160a85a3 <= 0
x160x121x2 - 2a160a121a2 <= 0
v187v131v1 - 2d187d131d1 <= 0
v4v121v2 - 2d4d121d2 <= 0
v156v131v1 - 2d156d131d1 <= 0
v155v85v3 - 2d155d85d3 <= 0
v155v131v1 - 2d155d131d1 <= 0
v70v85v3 - 2d70d85d3 <= 0
v70v121v2 - 2d70d121d2 <= 0
v108v85v3 - 2d108d85d3 <= 0
v108v131v1 - 2d108d131d1 <= 0
v20v85v3 - 2d20d85d3 <= 0
v20v121v2 - 2d20d121d2 <= 0
v208v85v3 - 2d208d85d3 <= 0
v208v121v2 - 2d208d121d2 <= 0
v160v85v3 - 2d160d85d3 <= 0
v160v121v2 - 2d160d121d2 <= 0

Bounds
s187 = 4.434435
t187 = 4.434435
u187 = 4.434435
r187 = 4.434435
s4 = 4.500240
t4 = 4.500240
u4 = 4.500240
r4 = 4.500240
s156 = 4.810804
t156 = 4.810804
u156 = 4.810804
r156 = 4.810804
s155 = 4.602709
t155 = 4.602709
u155 = 4.602709
r155 = 4.602709
s70 = 5.161530
t70 = 5.161530
u70 = 5.161530
r70 = 5.161530
s108 = 5.345450
t108 = 5.345450
u108 = 5.345450
r108 = 5.345450
s20 = 5.427487
t20 = 5.427487
u20 = 5.427487
r20 = 5.427487
s208 = 5.727311
t208 = 5.727311
u208 = 5.727311
r208 = 5.727311
s160 = 5.748362
t160 = 5.748362
u160 = 5.748362
r160 = 5.748362
5.00 <= s85 <= 6.00
5.14 <= s121 <= 6.14
5.11 <= s131 <= 6.11

0.00 <= t85 <= 20.00
0.00 <= t121 <= 20.00
0.00 <= t131 <= 20.00

0.00 <= u85 <= 20.00
0.00 <= u121 <= 20.00
0.00 <= u131 <= 20.00

5.00 <= r85 <= 6.00
5.14 <= r121 <= 6.14
5.11 <= r131 <= 6.11

General
x187x131x1 
x4x121x2 
x156x131x1 
x155x85x3 x155x131x1 
x70x85x3 x70x121x2 
x108x85x3 x108x131x1 
x20x85x3 x20x121x2 
x208x85x3 x208x121x2 
x160x85x3 x160x121x2 



v187v131v1 
v4v121v2 
v156v131v1 
v155v85v3 v155v131v1 
v70v85v3 v70v121v2 
v108v85v3 v108v131v1 
v20v85v3 v20v121v2 
v208v85v3 v208v121v2 
v160v85v3 v160v121v2 

Binaries
X85 X121 X131 


V85 V121 V131 

w85 w121 w131 

a187a131a1 
a4a121a2 
a156a131a1 
a155a85a3 a155a131a1 
a70a85a3 a70a121a2 
a108a85a3 a108a131a1 
a20a85a3 a20a121a2 
a208a85a3 a208a121a2 
a160a85a3 a160a121a2 



d187d131d1 
d4d121d2 
d156d131d1 
d155d85d3 d155d131d1 
d70d85d3 d70d121d2 
d108d85d3 d108d131d1 
d20d85d3 d20d121d2 
d208d85d3 d208d121d2 
d160d85d3 d160d121d2 

End